     Program PWSCF v.6.4.1 starts on  6Dec2019 at 14:15:32

     R & G space division:  proc/nbgrp/npool/nimage =       4
     Reading input from Al.vc_relax.in

     Current dimensions of program PWSCF are:
     Max number of different atomic species (ntypx) = 10
     Max number of k-points (npk) =  40000
     Max angular momentum in pseudopotentials (lmaxx) =  3
               file Al.pbe-n-kjpaw_psl.1.0.0.UPF: wavefunction(s)  3S 3P renormalized

     Subspace diagonalization in iterative solution of the eigenvalue problem:
     a serial algorithm will be used

     bravais-lattice index     =            2
     lattice parameter (alat)  =      10.0000  a.u.
     unit-cell volume          =     250.0000 (a.u.)^3
     number of atoms/cell      =            1
     number of atomic types    =            1
     number of electrons       =         3.00
     number of Kohn-Sham states=            6
     kinetic-energy cutoff     =      30.0000  Ry
     charge density cutoff     =     120.0000  Ry
     convergence threshold     =      1.0E-06
     mixing beta               =       0.7000
     number of iterations used =            8  plain     mixing
     Exchange-correlation      = SLA PW PBX PBC ( 1  4  3  4 0 0)
     nstep                     =           50

     celldm(1)=  10.000000  celldm(2)=   0.000000  celldm(3)=   0.000000
     celldm(4)=   0.000000  celldm(5)=   0.000000  celldm(6)=   0.000000

     crystal axes: (cart. coord. in units of alat)
               a(1) = (  -0.500000   0.000000   0.500000 )
               a(2) = (   0.000000   0.500000   0.500000 )
               a(3) = (  -0.500000   0.500000   0.000000 )

     reciprocal axes: (cart. coord. in units 2 pi/alat)
               b(1) = ( -1.000000 -1.000000  1.000000 )
               b(2) = (  1.000000  1.000000  1.000000 )
               b(3) = ( -1.000000  1.000000 -1.000000 )

     PseudoPot. # 1 for Al read from file:
     /home/adikshith/qe-6.4.1/pslibrary.1.0.0/pbe/PSEUDOPOTENTIALS/Al.pbe-n-kjpaw_psl.1.0.0.UPF
     MD5 check sum: a7640553957211ac5404d8c25f6131cc
     Pseudo is Projector augmented-wave + core cor, Zval =  3.0
     Generated using "atomic" code by A. Dal Corso v.6.4.1
     Shape of augmentation charge: PSQ
     Using radial grid of 1135 points,  6 beta functions with:
                l(1) =   0
                l(2) =   0
                l(3) =   1
                l(4) =   1
                l(5) =   2
                l(6) =   2
     Q(r) pseudized with 0 coefficients

     atomic species   valence    mass     pseudopotential
        Al             3.00    26.90850     Al( 1.00)

     48 Sym. Ops., with inversion, found

   Cartesian axes

     site n.     atom                  positions (alat units)
         1           Al  tau(   1) = (   0.0000000   0.0000000   0.0000000  )

     number of k points=    16  Marzari-Vanderbilt smearing, width (Ry)=  0.0200
                       cart. coord. in units 2pi/alat
        k(    1) = (   0.0000000   0.0000000   0.0000000), wk =   0.0092593
        k(    2) = (  -0.1666667   0.1666667  -0.1666667), wk =   0.0740741
        k(    3) = (  -0.3333333   0.3333333  -0.3333333), wk =   0.0740741
        k(    4) = (   0.5000000  -0.5000000   0.5000000), wk =   0.0370370
        k(    5) = (   0.0000000   0.3333333   0.0000000), wk =   0.0555556
        k(    6) = (  -0.1666667   0.5000000  -0.1666667), wk =   0.2222222
        k(    7) = (   0.6666667  -0.3333333   0.6666667), wk =   0.2222222
        k(    8) = (   0.5000000  -0.1666667   0.5000000), wk =   0.2222222
        k(    9) = (   0.3333333   0.0000000   0.3333333), wk =   0.1111111
        k(   10) = (   0.0000000   0.6666667   0.0000000), wk =   0.0555556
        k(   11) = (   0.8333333  -0.1666667   0.8333333), wk =   0.2222222
        k(   12) = (   0.6666667  -0.0000000   0.6666667), wk =   0.1111111
        k(   13) = (   0.0000000  -1.0000000   0.0000000), wk =   0.0277778
        k(   14) = (   0.6666667  -0.3333333   1.0000000), wk =   0.2222222
        k(   15) = (   0.5000000  -0.1666667   0.8333333), wk =   0.2222222
        k(   16) = (  -0.3333333  -1.0000000   0.0000000), wk =   0.1111111

     Initial potential from superposition of free atoms

     starting charge    2.99771, renormalised to    3.00000
     Starting wfcs are    4 randomized atomic wfcs +    2 random wfcs
     Checking if some PAW data can be deallocated...

     Self-consistent Calculation

     iteration #  1     ecut=    30.00 Ry     beta= 0.70
     Davidson diagonalization with overlap
     ethr =  1.00E-02,  avg # of iterations =  4.9

     Threshold (ethr) on eigenvalues was too large:
     Diagonalizing with lowered threshold

     Davidson diagonalization with overlap
     ethr =  1.44E-04,  avg # of iterations =  2.1

     total energy              =     -39.41118389 Ry
     Harris-Foulkes estimate   =     -39.41218310 Ry
     estimated scf accuracy    <       0.00418799 Ry

[...]

     End of self-consistent calculation

          k = 0.0000 0.0000 0.0000 (   701 PWs)   bands (ev):

    -5.0120   8.1366   8.1366   8.1366  10.7771  10.7772

          k =-0.1667 0.1667-0.1667 (   685 PWs)   bands (ev):

[...]

     the Fermi energy is     1.6411 ev

!    total energy              =     -39.41133331 Ry
     Harris-Foulkes estimate   =     -39.41133342 Ry
     estimated scf accuracy    <       0.00000023 Ry

     total all-electron energy =      -485.554114 Ry

     The total energy is the sum of the following terms:

     one-electron contribution =       1.58457807 Ry
     hartree contribution      =       0.07151567 Ry
     xc contribution           =      -2.28058557 Ry
     ewald contribution        =      -4.12637590 Ry
     one-center paw contrib.   =     -34.65990074 Ry
     smearing contrib. (-TS)   =      -0.00056483 Ry

     convergence has been achieved in   4 iterations

     Forces acting on atoms (cartesian axes, Ry/au):

     atom    1 type  1   force =     0.00000000    0.00000000    0.00000000

     Total force =     0.000000     Total SCF correction =     0.000000

     Computing stress (Cartesian axis) and pressure

          total   stress  (Ry/bohr**3)                   (kbar)     P=  -88.97
  -0.00060479   0.00000000   0.00000000        -88.97      0.00      0.00
   0.00000000  -0.00060479  -0.00000000          0.00    -88.97     -0.00
   0.00000000  -0.00000000  -0.00060479          0.00     -0.00    -88.97

     BFGS Geometry Optimization

     number of scf cycles    =   1
     number of bfgs steps    =   0

     enthalpy new            =     -39.4113333058 Ry

     new trust radius        =       0.0478130625 bohr
     new conv_thr            =       0.0000010000 Ry

     new unit-cell volume =    238.83073 a.u.^3 (    35.39106 Ang^3 )
     density =      1.26254 g/cm^3

CELL_PARAMETERS (alat= 10.00000000)
  -0.492440091  -0.000000000   0.492440091
   0.000000000   0.492440091   0.492440091
  -0.492440091   0.492440091  -0.000000000

ATOMIC_POSITIONS (alat)
Al       0.000000000   0.000000000   0.000000000

     Writing output data file Al.save/
     NEW-OLD atomic charge density approx. for the potential
     extrapolated charge    2.85981, renormalised to    3.00000

[...]

     enthalpy old            =     -39.4113333058 Ry
     enthalpy new            =     -39.4182934060 Ry

     CASE: enthalpy_new < enthalpy_old

     WARNING: bfgs curvature condition failed, Theta= 0.777
     new trust radius        =       0.0711753351 bohr
     new conv_thr            =       0.0000000100 Ry

[...]

     WARNING: bfgs curvature condition failed, Theta= 0.689
     uphill step: resetting bfgs history

[...]

     WARNING: bfgs curvature condition failed, Theta= 0.797
     new trust radius        =       0.0825435268 bohr
     new conv_thr            =       0.0000000100 Ry

[...]

     number of scf cycles    =  11
     number of bfgs steps    =  10

     enthalpy old            =     -39.5079015994 Ry
     enthalpy new            =     -39.5079067550 Ry

     CASE: enthalpy_new < enthalpy_old

     new trust radius        =       0.0001986248 bohr
     new conv_thr            =       0.0000000100 Ry

     new unit-cell volume =    111.81269 a.u.^3 (    16.56893 Ang^3 )
     density =      2.69677 g/cm^3

[...]

ATOMIC_POSITIONS (alat)
Al       0.000000000   0.000000000   0.000000000

     Writing output data file Al.save/
     NEW-OLD atomic charge density approx. for the potential
     extrapolated charge    2.99916, renormalised to    3.00000

[...]

     Threshold (ethr) on eigenvalues was too large:
     Diagonalizing with lowered threshold

     Davidson diagonalization with overlap
     ethr =  2.33E-11,  avg # of iterations =  2.1

[...]

     bfgs converged in  12 scf cycles and  11 bfgs steps
     (criteria: energy <  1.0E-06 Ry, force <  1.0E-05Ry/Bohr, cell <  5.0E-01kbar)

     End of BFGS Geometry Optimization

     Final enthalpy =     -39.5079067795 Ry
Begin final coordinates
     new unit-cell volume =    111.81269 a.u.^3 (    16.56893 Ang^3 )
     density =      2.69677 g/cm^3

CELL_PARAMETERS (alat= 10.00000000)
  -0.382372833   0.000000000   0.382372833
   0.000000000   0.382372833   0.382372833
  -0.382372833   0.382372833   0.000000000

ATOMIC_POSITIONS (alat)
Al       0.000000000   0.000000000   0.000000000
End final coordinates

     Writing output data file Al.save/

     A final scf calculation at the relaxed structure.
     The G-vectors are recalculated for the final unit cell
     Results may differ from those at the preceding step.

     bravais-lattice index     =            2
     lattice parameter (alat)  =      10.0000  a.u.
     unit-cell volume          =     111.8127 (a.u.)^3
     number of atoms/cell      =            1
     number of atomic types    =            1
     number of electrons       =         3.00
     number of Kohn-Sham states=            6
     kinetic-energy cutoff     =      30.0000  Ry
     charge density cutoff     =     120.0000  Ry
     convergence threshold     =      1.0E-08
     mixing beta               =       0.7000
     number of iterations used =            8  plain     mixing
     Exchange-correlation      = SLA PW PBX PBC ( 1  4  3  4 0 0)

     celldm(1)=  10.000000  celldm(2)=   0.000000  celldm(3)=   0.000000
     celldm(4)=   0.000000  celldm(5)=   0.000000  celldm(6)=   0.000000

     crystal axes: (cart. coord. in units of alat)
               a(1) = (  -0.382373   0.000000   0.382373 )
               a(2) = (   0.000000   0.382373   0.382373 )
               a(3) = (  -0.382373   0.382373   0.000000 )

     reciprocal axes: (cart. coord. in units 2 pi/alat)
               b(1) = ( -1.307624 -1.307624  1.307624 )
               b(2) = (  1.307624  1.307624  1.307624 )
               b(3) = ( -1.307624  1.307624 -1.307624 )

     PseudoPot. # 1 for Al read from file:
     /home/adikshith/qe-6.4.1/pslibrary.1.0.0/pbe/PSEUDOPOTENTIALS/Al.pbe-n-kjpaw_psl.1.0.0.UPF
     MD5 check sum: a7640553957211ac5404d8c25f6131cc
     Pseudo is Projector augmented-wave + core cor, Zval =  3.0
     Generated using "atomic" code by A. Dal Corso v.6.4.1
     Shape of augmentation charge: PSQ
     Using radial grid of 1135 points,  6 beta functions with:
                l(1) =   0
                l(2) =   0
                l(3) =   1
                l(4) =   1
                l(5) =   2
                l(6) =   2
     Q(r) pseudized with 0 coefficients

     atomic species   valence    mass     pseudopotential
        Al             3.00    26.90850     Al( 1.00)

     48 Sym. Ops., with inversion, found

   Cartesian axes

     site n.     atom                  positions (alat units)
         1           Al  tau(   1) = (   0.0000000   0.0000000   0.0000000  )

     number of k points=    16  Marzari-Vanderbilt smearing, width (Ry)=  0.0200
                       cart. coord. in units 2pi/alat
        k(    1) = (   0.0000000   0.0000000   0.0000000), wk =   0.0092593
        k(    2) = (  -0.2179374   0.2179374  -0.2179374), wk =   0.0740741
        k(    3) = (  -0.4358748   0.4358748  -0.4358748), wk =   0.0740741
        k(    4) = (   0.6538121  -0.6538121   0.6538121), wk =   0.0370370
        k(    5) = (  -0.0000000   0.4358748  -0.0000000), wk =   0.0555556
        k(    6) = (  -0.2179374   0.6538121  -0.2179374), wk =   0.2222222
        k(    7) = (   0.8717495  -0.4358748   0.8717495), wk =   0.2222222
        k(    8) = (   0.6538121  -0.2179374   0.6538121), wk =   0.2222222
        k(    9) = (   0.4358748  -0.0000000   0.4358748), wk =   0.1111111
        k(   10) = (  -0.0000000   0.8717495  -0.0000000), wk =   0.0555556
        k(   11) = (   1.0896869  -0.2179374   1.0896869), wk =   0.2222222
        k(   12) = (   0.8717495  -0.0000000   0.8717495), wk =   0.1111111
        k(   13) = (   0.0000000  -1.3076243   0.0000000), wk =   0.0277778
        k(   14) = (   0.8717495  -0.4358748   1.3076243), wk =   0.2222222
        k(   15) = (   0.6538121  -0.2179374   1.0896869), wk =   0.2222222
        k(   16) = (  -0.4358748  -1.3076243   0.0000000), wk =   0.1111111

     Initial potential from superposition of free atoms

     starting charge    2.99771, renormalised to    3.00000
     Starting wfcs are    4 randomized atomic wfcs +    2 random wfcs
     Checking if some PAW data can be deallocated...

     Self-consistent Calculation

[...]

     total energy              =     -39.50785978 Ry
     Harris-Foulkes estimate   =     -39.50785983 Ry
     estimated scf accuracy    <       0.00000005 Ry

     iteration #  5     ecut=    30.00 Ry     beta= 0.70
     Davidson diagonalization with overlap
     ethr =  1.75E-09,  avg # of iterations =  1.0

     End of self-consistent calculation

[...]

          k = 0.6538-0.2179 1.0897 (   312 PWs)   bands (ev):

[...]

          k =-0.4359-1.3076 0.0000 (   308 PWs)   bands (ev):

     5.8675   7.2125   8.6381  10.2038  19.7697  21.5889

     the Fermi energy is     8.2189 ev

!    total energy              =     -39.50785978 Ry
     Harris-Foulkes estimate   =     -39.50785979 Ry
     estimated scf accuracy    <          7.4E-10 Ry

     total all-electron energy =      -485.650640 Ry

     The total energy is the sum of the following terms:

     one-electron contribution =       3.15128269 Ry
     hartree contribution      =       0.00536040 Ry
     xc contribution           =      -2.58844385 Ry
     ewald contribution        =      -5.39574932 Ry
     one-center paw contrib.   =     -34.67976259 Ry
     smearing contrib. (-TS)   =      -0.00054711 Ry

     convergence has been achieved in   5 iterations

     Forces acting on atoms (cartesian axes, Ry/au):

     atom    1 type  1   force =     0.00000000    0.00000000    0.00000000

     Total force =     0.000000     Total SCF correction =     0.000000

     Computing stress (Cartesian axis) and pressure

          total   stress  (Ry/bohr**3)                   (kbar)     P=    0.02
   0.00000013  -0.00000000   0.00000000          0.02     -0.00      0.00
  -0.00000000   0.00000013  -0.00000000         -0.00      0.02     -0.00
   0.00000000  -0.00000000   0.00000013          0.00     -0.00      0.02

     Writing output data file Al.save/

     General routines

     Parallel routines

   This run was terminated on:  14:16: 0   6Dec2019

   JOB DONE.